9 14 4 13 10 3 7 8 0 5 1 2 12 6 11
10 8 11 14 3 13 9 7 4 2 6 1 5 12 0
7 0 6 5 14 13 2 11 4 12 1 9 3 10 8
9 11 14 0 1 8 5 10 12 4 13 3 6 7 2
11 4 13 3 8 1 10 12 2 14 6 7 0 9 5
5 2 1 10 0 4 8 14 6 3 9 7 11 12 13
5 10 13 0 9 8 1 11 14 7 12 2 6 4 3
12 0 9 3 13 6 5 7 2 14 11 8 10 1 4
11 10 5 13 1 9 8 7 3 6 0 2 14 12 4
2 14 3 10 6 1 0 13 11 4 5 8 7 12 9
11 14 13 5 4 9 1 6 12 0 2 8 10 3 7
12 3 10 8 4 7 13 11 14 1 2 0 5 6 9
8 13 5 0 11 9 4 12 1 10 6 2 7 14 3
2 5 4 3 9 1 11 13 7 6 10 14 0 8 12
1 10 4 2 0 7 6 9 11 12 5 14 3 13 8